AuLoKomp_MIP_Pinning/model/Julian_2.mps
NAME (null)_copy
ROWS
 N  OBJ
 E  c0      
 E  c1      
 L  c2      
 E  c3      
 L  c4      
 L  c5      
 L  c6      
 L  c7      
 L  c8      
 L  c9      
 L  c10     
 L  c11     
 L  c12     
 L  c13     
COLUMNS
    MARKER    'MARKER'                 'INTORG'
    x[0,0,0]  c0        1
    x[0,0,0]  c2        1
    x[0,0,0]  c4        4
    x[0,0,0]  c5        4
    x[0,0,0]  c10       1
    x[0,0,0]  c12       1
    y[0,0,0]  c6        -1
    y[0,0,0]  c11       1
    y[0,0,0]  c12       -1
    y[0,0,0]  c13       10
    z1[0,0,0]  c6        1
    z1[0,0,0]  c10       -1
    z2[0,0,0]  c7        6
    z2[0,0,0]  c10       -1
    z3[0,0,0]  c8        2
    z3[0,0,0]  c10       -1
    z3[0,0,0]  c13       1
    z4[0,0,0]  c9        2
    z4[0,0,0]  c10       -1
    z4[0,0,0]  c13       1
    u[0,0,0]  c2        -1
    u[0,0,0]  c3        1
    MARKER    'MARKER'                 'INTEND'
    h[0,0]    c5        -1
    e[0]      OBJ       1
    e[0]      c13       -1
RHS
    RHS1      c0        1
    RHS1      c3        1
    RHS1      c4        6
    RHS1      c5        3
    RHS1      c7        1
    RHS1      c11       1
    RHS1      c13       1
BOUNDS
 BV BND1      x[0,0,0]
 BV BND1      y[0,0,0]
 BV BND1      z1[0,0,0]
 BV BND1      z2[0,0,0]
 BV BND1      z3[0,0,0]
 BV BND1      z4[0,0,0]
 BV BND1      u[0,0,0]
 FX BND1      h[0,0]    3
 UP BND1      e[0]      24
ENDATA
